32 0 31 9 24 11 29 10 2 35 18 30 15 39 38 37 48 40 14 41 49 28 16 19 5 17 7 36 22 42 3 12 8 46 6 20 43 34 21 27 13 1 26 47 4 23 44 25 45 33  
32 0 31 9 24 11 29 10 2 35 18 30 15 39 38 37 40 48 14 49 41 28 16 19 5 17 7 36 8 42 3 12 22 46 6 20 43 34 21 27 13 1 26 47 4 23 44 25 45 33  
32 0 31 9 24 11 29 10 2 35 18 30 15 39 38 37 40 48 14 41 49 28 16 19 5 17 7 26 22 36 42 3 20 43 1 34 21 27 6 47 12 13 46 8 44 4 45 23 25 33  
32 0 31 9 24 11 29 10 2 35 18 30 15 39 38 37 48 40 14 19 28 16 41 5 17 7 12 22 49 42 3 20 43 1 34 27 6 21 44 26 13 46 47 36 45 23 8 25 4 33  
32 0 31 9 24 11 29 10 2 35 18 30 15 39 38 37 40 48 14 41 49 28 16 19 5 17 7 26 22 36 42 3 20 43 1 34 21 27 6 47 12 13 46 8 44 4 45 23 25 33  
32 0 31 9 24 11 29 10 2 35 18 30 15 39 38 37 48 40 14 19 49 28 16 41 5 17 7 12 22 36 42 3 20 43 1 34 27 21 6 47 26 13 46 8 44 4 23 45 25 33  
